solution status: optimal solution found
objective value:                                    0
thingy.hole_y                                      14 	(obj:0)
thingy.hole_z                                      17 	(obj:0)
thingy.ring_inlet_pinholes[2].hole_y                   15 	(obj:0)
thingy.ring_inlet_pinholes[2].hole_z                   13 	(obj:0)
thingy.prep_inlet_pinholes[1].hole_y                   13 	(obj:0)
thingy.prep_inlet_pinholes[1].hole_z                    9 	(obj:0)
thingy.ring_inlet_pinholes[1].hole_y                   13 	(obj:0)
thingy.ring_inlet_pinholes[1].hole_z                   13 	(obj:0)
thingy.prep_inlet_pinholes[3].hole_y                   13 	(obj:0)
thingy.prep_inlet_pinholes[3].hole_z                    8 	(obj:0)
thingy.prep_inlet_pinholes[4].hole_y                   14 	(obj:0)
thingy.prep_inlet_pinholes[4].hole_z                    8 	(obj:0)
thingy.prep_inlet_pinholes[0].hole_y                   13 	(obj:0)
thingy.prep_inlet_pinholes[0].hole_z                   10 	(obj:0)
thingy.prep_inlet_pinholes[2].hole_y                   15 	(obj:0)
thingy.prep_inlet_pinholes[2].hole_z                    8 	(obj:0)
thingy.ring_inlet_pinholes[0].hole_y                   14 	(obj:0)
thingy.ring_inlet_pinholes[0].hole_z                   13 	(obj:0)
thingy.ring_inlet_pinholes[3].hole_y                   16 	(obj:0)
thingy.ring_inlet_pinholes[3].hole_z                   13 	(obj:0)
